49 74
-88 59
92 -12
86 9
69 90
26 27
-21 -32
-87 4
96 -49
5 75
-23 -81
90 -26
94 71
-2 39
-55 -61
-96 -25
-8 -14
69 -52
3 -43
-25 -88
-96 38
99 14
91 22
-40 -96
67 -42
30 53
5 48
-67 44
18 -16
35 -28
14 96
85 68
-30 29
-9 13
73 -63
76 -80
74 -33
-52 96
-30 76
35 1
-90 -38
16 46
35 81
-80 66
0 1
-9 -31
-8 59
-93 -98
57 -62
-100 -82
18 -93
22 -2
91 -54
44 23
43 65
34 21
-89 -31
99 -78
-48 59
4 79
88 36
-36 1
-74 22
79 8
-34 -18
-77 -87
1 -22
97 8
91 52
26 24
37 -30
21 -27
24 14
-83 13
53 86
28 -36
-10 -47
-51 51
-94 9
-96 42
-37 -35
-71 -59
-44 -39
5 -69
6 -24
38 64
90 -45
-82 -86
2 89
-50 -97
52 9
-68 15
-28 -62
-37 45
87 93
-96 -9
84 45
-92 -2
5 -4
-30 -98